SA1                                     
   1.0000000000000000     
    12.2029999999999994    0.0000000000000000    0.0000000000000000
     0.0000000000000000   12.2029999999999994    0.0000000000000000
     0.0000000000000000    0.0000000000000000   12.2029999999999994
   W    Cr   Ta
    86    34     8
Direct
  0.9972166572076083  0.4965929468485931  0.2489183619574653
  0.7448711204633278  0.7470042223073964  0.4982060631494431
  0.7546983035370143  0.5029692692706959  0.2506195336953400
  0.6228897169137897  0.1250832904822071  0.8718226763236716
  0.2506486664923040  0.2448772301185093  0.7458266081589443
  0.0021399026002351  0.2516108578816677  0.7468471621147066
  0.5030205594632712  0.7541075979353435  0.7502551483884978
  0.9971755363468406  0.7437917718742746  0.2485317233749081
  0.9978741301904845  0.4978614244821619  0.0056627661209153
  0.7433439077667097  0.7495643526101554  0.7509863275567167
  0.8733494670430139  0.8731853962260873  0.1255685821636797
  0.8767161843363371  0.1275346411349587  0.8734946470989597
  0.4994792422155028  0.2496584022365275  0.7462901274798406
  0.7483255219629016  0.2546030037443638  0.7478728824969988
  0.3767893120188675  0.8753240377034058  0.3764517662338672
  0.2504551522998624  0.7496822955402670  0.2483111657338157
  0.2513530270221223  0.4960394829967035  0.7482151320399910
  0.8753162279553588  0.1270274372864311  0.6239673862216322
  0.7469519715348685  0.0001351131842809  0.5014689211258169
  0.1246445393105223  0.6237537925308604  0.6247853504118900
  0.2450621007781489  0.4974542615392107  0.2477893703260359
  0.1247958761491343  0.8764720484140873  0.3762774229932118
  0.8726637292290104  0.8743856933563197  0.3752773486992810
  0.3777323562466750  0.6278823589371704  0.8742447047789510
  0.1230551264817216  0.6219367198000101  0.3743532331707087
  0.7525743439851869  0.2529818696535786  0.5014160992702530
  0.2426724230734099  0.2496693703725697  0.2515595181323015
  0.3775936209179782  0.6258747768272320  0.6257162338512955
  0.7468768403775086  0.9964991453771431  0.9981396486306658
  0.2489022916063773  0.0022792513193902  0.2485209574852125
  0.5055778062696046  0.4991111076546602  0.7483064163425118
  0.3760908646302836  0.3730630779898396  0.8725633322244911
  0.8745154214408095  0.8746454844447487  0.8747712502296890
  0.8727185679559692  0.6227387409368613  0.8760092245014968
  0.9971517169300547  0.4952575921439689  0.7482317710479345
  0.6285002695566830  0.3773065380282390  0.1241275267205825
  0.0026134086919292  0.0047409565076650  0.5002817773702888
  0.4964227326125548  0.9988040439591005  0.7484650633408653
  0.3731765250349373  0.3741944065189044  0.3776146742550044
  0.7482350328373947  0.9991763161608725  0.2513696181705760
  0.7464567619668037  0.4967100531946197  0.7496338888453652
  0.0024168119354312  0.7519717281053889  0.7498991202237336
  0.5038273706452886  0.5039779291674618  0.2507652589269860
  0.9961228567261428  0.4933287520805468  0.4973257977067608
  0.7467002777685494  0.7454689161634092  0.2495016202264880
  0.4991611654983339  0.2496775647072346  0.5072733286492584
  0.3734317325771072  0.3746890284609338  0.1242315585998342
  0.3730411307234908  0.1228712823648862  0.1227524555650651
  0.5006486131172257  0.9951160880562777  0.2491566586992820
  0.0010691292738667  0.0049069662804667  0.2522119725965645
  0.2471326276793578  0.2464400014127820  0.9987142236072706
  0.6260912735494694  0.1242796980620860  0.3778280101405926
  0.7509594258726104  0.5010133624670234  0.0001929760641934
  0.5049760314415465  0.4999715710202347  0.5037118284792957
  0.9990144798748098  0.7493464058277165  0.4999600423786263
  0.0012459992938956  0.2531092733715183  0.2527864097890576
  0.2514729434426800  0.0012598839826421  0.7502875979036908
  0.2515902106997523  0.7574582213143811  0.7495150687208810
  0.6279734291002301  0.3768221344791038  0.3774245217565539
  0.8734256546409170  0.8754876841935564  0.6246057641142115
  0.3732478352775727  0.1249810477868450  0.3782477213778547
  0.2518102997658456  0.7536235412810504  0.9985673010543349
  0.5050573801497323  0.5016836719199838  0.9976189411782406
  0.7515668125161661  0.2548540671690829  0.9981420576385525
  0.2483399611200341  0.4946159258091803  0.5014382815896488
  0.5050113917292777  0.7520367657984522  0.5023610514724536
  0.0017853022358118  0.2514765884752166  0.4978495784323572
  0.5013500633709598  0.9989030942100869  0.5063183785831711
  0.3770290425498711  0.6252284998831659  0.3759927027579511
  0.0063826175886478  0.0010859893372473  0.7492995163695698
  0.2492707200544798  0.0025994002035461  0.5065399096174250
  0.1261300344110360  0.8760795563274741  0.1232830724095852
  0.6252723910140539  0.1239239271179966  0.1241264820912883
  0.8719664086880724  0.6227833299433962  0.6237867794300759
  0.5009348117170894  0.2505874601693236  0.2499604859519058
  0.3766768956478443  0.6271179886619688  0.1240316229325082
  0.9996124832882936  0.7481233194478800  0.0013730292319795
  0.1234858632558487  0.3727709789987724  0.8746681559796171
  0.8768420748755775  0.1273571563211483  0.1259236994043267
  0.5047262177776470  0.7539360308284345 -0.0009662680960906
  0.4976403878702441  0.9954411611167308  0.9967684828847004
  0.0044731647748571  0.0029040890948170  0.9983941261094683
  0.0010907579056207  0.2521353743356453  0.0020206010224337
  0.5057640535857141  0.7513051927895288  0.2482086115109784
  0.2508305260472580  0.0002917674393822  0.9942016598471504
  0.1252863471617812  0.6255322613780453  0.8760265969853195
  0.6225556685179844  0.8749447152899237  0.6249327667032265
  0.6253506979131102  0.6248913366015084  0.8746517329763464
  0.1227318977327893  0.6234229630312005  0.1255571457452552
  0.1218189540838057  0.3739157396467014  0.1267646662039955
  0.6227432031007483  0.1254571728680274  0.6250782849681665
  0.3750238540562548  0.8771603791116852  0.8738139523587308
  0.8734737999097174  0.6231538529380800  0.3734439630309324
  0.6235399319457567  0.8723387017943478  0.1251024342035316
  0.8748205048872616  0.3744342052110142  0.6249012055132308
  0.1270254050277159  0.1239268116502607  0.8736736318732591
  0.8738233518981043  0.3753522636440623  0.8749489603441407
  0.1239093555611092  0.3717406642895063  0.6235864260372915
  0.3740946731500366  0.1241912012601757  0.6272429489111602
  0.6212923091524933  0.8735442984945991  0.8741878097579138
  0.3758219712199857  0.3726376745553429  0.6253179152949460
  0.1223088660540748  0.3728992859332197  0.3748721346951501
  0.1286209790112215  0.8778795761166625  0.8738310456819196
  0.6271809833911551  0.3767602800656026  0.8720539801950117
  0.6255795243655723  0.3753630357115386  0.6265311387362803
  0.8774910521247921  0.3753369029420262  0.3752548529117585
  0.1270388089663211  0.8780549302232089  0.6274059937548739
  0.1234498570168506  0.1272068532493528  0.3760790207165559
  0.6271390036474088  0.6266995512461898  0.3749818999828147
  0.8772570521476024  0.1268685280729833  0.3759911326611097
  0.3725595634653606  0.1218204158491435  0.8715565352875693
  0.1262606000940102  0.1254490594674654  0.6258310979786159
  0.8775549266387523  0.3768109569208123  0.1253381935363855
  0.8740979612006946  0.6223906932369757  0.1264682613507293
  0.6270890043938855  0.6266227727779425  0.1251957889153726
  0.1246837175640332  0.1264826435082361  0.1246311620794543
  0.3762515778521612  0.8777031611158763  0.6281851375124747
  0.6250399578995389  0.6251602216291681  0.6255493904221068
  0.6252333865749350  0.8733342852526536  0.3756464089781810
  0.3764633173594019  0.8751437745500750  0.1220766856575871
  0.7440557844177665  0.7465694550235981  0.0020821156049189
  0.2509958718010554  0.7537056856176789  0.5040859114294836
  0.2448292408158627  0.2488138035557605  0.5045449084732748
  0.7574443574276304  0.2532278273193346  0.2528879727969610
  0.5001040303396049  0.2489509328752655  0.9945369383120941
  0.7507207130516647  0.5000332845114871  0.4997950314259744
  0.2467136207805062  0.4999883491532693  0.0025624103110218
  0.7432786917475416  0.9994466967949162  0.7477228025213559

  0.00000000E+00  0.00000000E+00  0.00000000E+00
  0.00000000E+00  0.00000000E+00  0.00000000E+00
  0.00000000E+00  0.00000000E+00  0.00000000E+00
  0.00000000E+00  0.00000000E+00  0.00000000E+00
  0.00000000E+00  0.00000000E+00  0.00000000E+00
  0.00000000E+00  0.00000000E+00  0.00000000E+00
  0.00000000E+00  0.00000000E+00  0.00000000E+00
  0.00000000E+00  0.00000000E+00  0.00000000E+00
  0.00000000E+00  0.00000000E+00  0.00000000E+00
  0.00000000E+00  0.00000000E+00  0.00000000E+00
  0.00000000E+00  0.00000000E+00  0.00000000E+00
  0.00000000E+00  0.00000000E+00  0.00000000E+00
  0.00000000E+00  0.00000000E+00  0.00000000E+00
  0.00000000E+00  0.00000000E+00  0.00000000E+00
  0.00000000E+00  0.00000000E+00  0.00000000E+00
  0.00000000E+00  0.00000000E+00  0.00000000E+00
  0.00000000E+00  0.00000000E+00  0.00000000E+00
  0.00000000E+00  0.00000000E+00  0.00000000E+00
  0.00000000E+00  0.00000000E+00  0.00000000E+00
  0.00000000E+00  0.00000000E+00  0.00000000E+00
  0.00000000E+00  0.00000000E+00  0.00000000E+00
  0.00000000E+00  0.00000000E+00  0.00000000E+00
  0.00000000E+00  0.00000000E+00  0.00000000E+00
  0.00000000E+00  0.00000000E+00  0.00000000E+00
  0.00000000E+00  0.00000000E+00  0.00000000E+00
  0.00000000E+00  0.00000000E+00  0.00000000E+00
  0.00000000E+00  0.00000000E+00  0.00000000E+00
  0.00000000E+00  0.00000000E+00  0.00000000E+00
  0.00000000E+00  0.00000000E+00  0.00000000E+00
  0.00000000E+00  0.00000000E+00  0.00000000E+00
  0.00000000E+00  0.00000000E+00  0.00000000E+00
  0.00000000E+00  0.00000000E+00  0.00000000E+00
  0.00000000E+00  0.00000000E+00  0.00000000E+00
  0.00000000E+00  0.00000000E+00  0.00000000E+00
  0.00000000E+00  0.00000000E+00  0.00000000E+00
  0.00000000E+00  0.00000000E+00  0.00000000E+00
  0.00000000E+00  0.00000000E+00  0.00000000E+00
  0.00000000E+00  0.00000000E+00  0.00000000E+00
  0.00000000E+00  0.00000000E+00  0.00000000E+00
  0.00000000E+00  0.00000000E+00  0.00000000E+00
  0.00000000E+00  0.00000000E+00  0.00000000E+00
  0.00000000E+00  0.00000000E+00  0.00000000E+00
  0.00000000E+00  0.00000000E+00  0.00000000E+00
  0.00000000E+00  0.00000000E+00  0.00000000E+00
  0.00000000E+00  0.00000000E+00  0.00000000E+00
  0.00000000E+00  0.00000000E+00  0.00000000E+00
  0.00000000E+00  0.00000000E+00  0.00000000E+00
  0.00000000E+00  0.00000000E+00  0.00000000E+00
  0.00000000E+00  0.00000000E+00  0.00000000E+00
  0.00000000E+00  0.00000000E+00  0.00000000E+00
  0.00000000E+00  0.00000000E+00  0.00000000E+00
  0.00000000E+00  0.00000000E+00  0.00000000E+00
  0.00000000E+00  0.00000000E+00  0.00000000E+00
  0.00000000E+00  0.00000000E+00  0.00000000E+00
  0.00000000E+00  0.00000000E+00  0.00000000E+00
  0.00000000E+00  0.00000000E+00  0.00000000E+00
  0.00000000E+00  0.00000000E+00  0.00000000E+00
  0.00000000E+00  0.00000000E+00  0.00000000E+00
  0.00000000E+00  0.00000000E+00  0.00000000E+00
  0.00000000E+00  0.00000000E+00  0.00000000E+00
  0.00000000E+00  0.00000000E+00  0.00000000E+00
  0.00000000E+00  0.00000000E+00  0.00000000E+00
  0.00000000E+00  0.00000000E+00  0.00000000E+00
  0.00000000E+00  0.00000000E+00  0.00000000E+00
  0.00000000E+00  0.00000000E+00  0.00000000E+00
  0.00000000E+00  0.00000000E+00  0.00000000E+00
  0.00000000E+00  0.00000000E+00  0.00000000E+00
  0.00000000E+00  0.00000000E+00  0.00000000E+00
  0.00000000E+00  0.00000000E+00  0.00000000E+00
  0.00000000E+00  0.00000000E+00  0.00000000E+00
  0.00000000E+00  0.00000000E+00  0.00000000E+00
  0.00000000E+00  0.00000000E+00  0.00000000E+00
  0.00000000E+00  0.00000000E+00  0.00000000E+00
  0.00000000E+00  0.00000000E+00  0.00000000E+00
  0.00000000E+00  0.00000000E+00  0.00000000E+00
  0.00000000E+00  0.00000000E+00  0.00000000E+00
  0.00000000E+00  0.00000000E+00  0.00000000E+00
  0.00000000E+00  0.00000000E+00  0.00000000E+00
  0.00000000E+00  0.00000000E+00  0.00000000E+00
  0.00000000E+00  0.00000000E+00  0.00000000E+00
  0.00000000E+00  0.00000000E+00  0.00000000E+00
  0.00000000E+00  0.00000000E+00  0.00000000E+00
  0.00000000E+00  0.00000000E+00  0.00000000E+00
  0.00000000E+00  0.00000000E+00  0.00000000E+00
  0.00000000E+00  0.00000000E+00  0.00000000E+00
  0.00000000E+00  0.00000000E+00  0.00000000E+00
  0.00000000E+00  0.00000000E+00  0.00000000E+00
  0.00000000E+00  0.00000000E+00  0.00000000E+00
  0.00000000E+00  0.00000000E+00  0.00000000E+00
  0.00000000E+00  0.00000000E+00  0.00000000E+00
  0.00000000E+00  0.00000000E+00  0.00000000E+00
  0.00000000E+00  0.00000000E+00  0.00000000E+00
  0.00000000E+00  0.00000000E+00  0.00000000E+00
  0.00000000E+00  0.00000000E+00  0.00000000E+00
  0.00000000E+00  0.00000000E+00  0.00000000E+00
  0.00000000E+00  0.00000000E+00  0.00000000E+00
  0.00000000E+00  0.00000000E+00  0.00000000E+00
  0.00000000E+00  0.00000000E+00  0.00000000E+00
  0.00000000E+00  0.00000000E+00  0.00000000E+00
  0.00000000E+00  0.00000000E+00  0.00000000E+00
  0.00000000E+00  0.00000000E+00  0.00000000E+00
  0.00000000E+00  0.00000000E+00  0.00000000E+00
  0.00000000E+00  0.00000000E+00  0.00000000E+00
  0.00000000E+00  0.00000000E+00  0.00000000E+00
  0.00000000E+00  0.00000000E+00  0.00000000E+00
  0.00000000E+00  0.00000000E+00  0.00000000E+00
  0.00000000E+00  0.00000000E+00  0.00000000E+00
  0.00000000E+00  0.00000000E+00  0.00000000E+00
  0.00000000E+00  0.00000000E+00  0.00000000E+00
  0.00000000E+00  0.00000000E+00  0.00000000E+00
  0.00000000E+00  0.00000000E+00  0.00000000E+00
  0.00000000E+00  0.00000000E+00  0.00000000E+00
  0.00000000E+00  0.00000000E+00  0.00000000E+00
  0.00000000E+00  0.00000000E+00  0.00000000E+00
  0.00000000E+00  0.00000000E+00  0.00000000E+00
  0.00000000E+00  0.00000000E+00  0.00000000E+00
  0.00000000E+00  0.00000000E+00  0.00000000E+00
  0.00000000E+00  0.00000000E+00  0.00000000E+00
  0.00000000E+00  0.00000000E+00  0.00000000E+00
  0.00000000E+00  0.00000000E+00  0.00000000E+00
  0.00000000E+00  0.00000000E+00  0.00000000E+00
  0.00000000E+00  0.00000000E+00  0.00000000E+00
  0.00000000E+00  0.00000000E+00  0.00000000E+00
  0.00000000E+00  0.00000000E+00  0.00000000E+00
  0.00000000E+00  0.00000000E+00  0.00000000E+00
  0.00000000E+00  0.00000000E+00  0.00000000E+00
  0.00000000E+00  0.00000000E+00  0.00000000E+00
  0.00000000E+00  0.00000000E+00  0.00000000E+00
